n = 15;
m = 42;

max_len = 8;
word_lens = [ 4, 4, 4, 4, 4, 4, 4, 5, 5, 5, 5, 5, 5, 5, 5, 5, 5, 5, 5, 6, 6, 6, 6, 6, 6, 6, 6, 6, 6, 7, 7, 7, 7, 7, 7, 7, 7, 8, 8, 8, 8, 8 ];
words = [| 8, 15, 3, 16, 1, 1, 1, 1 | 16, 1, 1, 18, 1, 1, 1, 1 | 11, 4, 19, 1, 1, 1, 1, 1 | 13, 3, 8, 5, 1, 1, 1, 1 | 5, 4, 6, 18, 1, 1, 1, 1 | 9, 1, 16, 8, 1, 1, 1, 1 | 5, 3, 6, 14, 1, 1, 1, 1 | 4, 8, 18, 1, 14, 1, 1, 1 | 26, 17, 1, 2, 22, 1, 1, 1 | 2, 4, 14, 7, 3, 1, 1, 1 | 8, 13, 3, 18, 1, 1, 1, 1 | 10, 1, 14, 7, 4, 1, 1, 1 | 9, 3, 5, 1, 14, 1, 1, 1 | 13, 2, 1, 8, 8, 1, 1, 1 | 12, 4, 6, 6, 8, 1, 1, 1 | 12, 7, 5, 1, 14, 1, 1, 1 | 4, 13, 13, 6, 22, 1, 1, 1 | 15, 1, 4, 2, 14, 1, 1, 1 | 16, 2, 3, 5, 1, 1, 1, 1 | 8, 5, 4, 5, 1, 14, 1, 1 | 2, 1, 13, 3, 2, 5, 1, 1 | 8, 4, 22, 7, 9, 11, 1, 1 | 8, 13, 1, 1, 12, 15, 1, 1 | 13, 3, 6, 7, 12, 1, 1, 1 | 10, 3, 9, 14, 4, 22, 1, 1 | 8, 17, 9, 14, 4, 22, 1, 1 | 26, 17, 3, 5, 1, 14, 1, 1 | 6, 1, 5, 5, 1, 2, 1, 1 | 20, 2, 7, 14, 4, 22, 1, 1 | 1, 19, 1, 9, 7, 9, 11, 1 | 16, 7, 5, 9, 1, 8, 8, 1 | 5, 1, 6, 6, 7, 9, 11, 1 | 1, 4, 2, 6, 7, 1, 2, 1 | 14, 1, 21, 2, 7, 1, 20, 1 | 5, 17, 1, 8, 14, 4, 22, 1 | 12, 3, 10, 10, 1, 9, 5, 1 | 7, 9, 26, 17, 7, 2, 22, 1 | 4, 13, 13, 1, 4, 2, 1, 14 | 2, 1, 12, 4, 6, 6, 1, 14 | 2, 1, 19, 1, 4, 6, 1, 14 | 4, 17, 14, 7, 1, 9, 12, 1 | 2, 1, 12, 1, 9, 5, 6, 22 |];

min_letter_counts = [ 21, 8, 6, 10, 8, 7, 7, 7, 6, 2, 2, 4, 5, 9, 1, 2, 3, 2, 1, 1, 1, 4, 0, 0, 0, 1 ];
max_letter_counts = [ 42, 17, 12, 20, 17, 14, 14, 15, 13, 4, 4, 8, 10, 18, 3, 5, 6, 4, 3, 2, 1, 9, 0, 0, 0, 3 ];

% pos_var_strat = smallest;
% pos_val_strat = indomain_min;  
